(set-logic QF_FPABV)
(declare-fun b25 () (_ FP 8 24))
(declare-fun b14 () (_ FP 11 53))
(declare-fun b28 () (_ FP 8 24))
(declare-fun b20 () (_ FP 11 53))
(declare-fun b9 () (_ FP 8 24))
(define-fun .3 () RoundingMode roundNearestTiesToEven)
(define-fun .9 () (_ FP 8 24) b9)
(define-fun .10 () (_ FP 8 24) (* .3 .9 .9))
(define-fun .11 () (_ FP 8 24) (+ .3 .9 .10))
(define-fun .12 () (_ FP 11 53) ((_ asFloat 11 53) .3 .11))
(define-fun .13 () (_ FP 11 53) b20)
(define-fun .14 () Bool (< .12 .13))
(define-fun .15 () Bool (not .14))
(define-fun .16 () (_ FP 8 24) b28)
(define-fun .17 () Bool (<= .16 .9))
(define-fun .18 () (_ FP 8 24) b25)
(define-fun .19 () Bool (<= .9 .18))
(define-fun .20 () Bool (and .17 .19))
(define-fun .21 () Bool (and .15 .20))
(define-fun .22 () (_ FP 11 53) b14)
(define-fun .23 () Bool (< .12 .22))
(define-fun .24 () Bool (and .21 .23))
(assert .24)
(check-sat)
